Route #1: 95 62 67 71 94 66 
Route #2: 23 21 18 19 22 49 20 48 25 
Route #3: 5 45 2 7 8 46 3 1 4 100 70 
Route #4: 82 52 99 90 
Route #5: 63 76 51 85 84 56 91 80 
Route #6: 14 47 73 79 6 55 68 
Route #7: 92 33 30 28 26 32 89 
Route #8: 69 98 88 53 78 60 
Route #9: 72 36 38 41 40 43 37 35 
Route #10: 39 42 44 61 81 54 96 
Route #11: 65 59 75 87 97 58 77 
Route #12: 83 64 57 86 74 24 
Route #13: 11 12 15 16 9 10 13 17 
Route #14: 27 29 31 34 50 93 
Objective: 284990.5
